3 
4  55 
5  21 37 57 
6  12 24 32 39 47 54 
7  02 09 17 24 32 39 47 54 
8  02 09 17 24 32 39 47 57 
9  06 14 21 29 36 44 51 59 
10  06 14 21 29 36 44 51 59 
11  06 14 21 29 36 44 51 59 
12  06 14 21 29 36 44 52 
13  00 08 15 23 30 38 45 53 
14  00 08 15 23 32 40 47 55 
15  02 10 17 25 32 40 47 55 
16  02 10 17 25 32 40 47 55 
17  02 10 17 25 32 40 47 55 
18  02 10 17 25 32 40 47 55 
19  02 10 17 25 33 40 47 55 
20  02 10 17 25 32 40 47 55 
21  02 17 32 47 
22  02 18 33 48 
23  02 17 
0 
